db/inputs/25963190526261272442681932310595723226.smt2
(set-logic QF_FP)
(declare-const x0 (_ FloatingPoint 11 53))
(declare-const x1 (_ FloatingPoint 11 53))
(declare-const x2 (_ FloatingPoint 11 53))
(declare-const x3 (_ FloatingPoint 11 53))
(declare-const x4 (_ FloatingPoint 11 53))
(declare-const x5 (_ FloatingPoint 11 53))
(declare-const x6 (_ FloatingPoint 11 53))
(declare-const x7 (_ FloatingPoint 11 53))
(declare-const x8 (_ FloatingPoint 11 53))
(declare-const x9 (_ FloatingPoint 11 53))
(declare-const x10 (_ FloatingPoint 11 53))
(declare-const x11 (_ FloatingPoint 11 53))
(assert (fp.leq (fp.neg x4) (fp.neg x4)))
(assert (fp.geq (fp.add RNE x8 x3) (fp.mul RNE x9 x11)))
(assert (fp.leq (fp.add RNE x9 x9) (fp.div RNE x7 x7)))
(assert (fp.leq (fp.sub RNE x3 x8) (fp.sub RNE x9 x11)))
(assert (fp.lt (fp.mul RNE x7 x0) (fp.mul RNE x4 x3)))
(assert (fp.leq (fp.sub RNE x9 x7) (fp.sub RNE x6 x8)))
(assert (fp.geq (fp.mul RNE x2 x9) (fp.mul RNE x7 x11)))
(assert (fp.leq (fp.div RNE x5 x7) (fp.div RNE x6 x11)))
(assert (fp.geq (fp.div RNE x1 x3) (fp.div RNE x0 x7)))
(assert (fp.lt (fp.add RNE x9 x8) (fp.div RNE x3 x0)))
(assert (fp.eq (fp.add RNE x6 x4) (fp.mul RNE x8 x3)))
(assert (fp.leq (fp.neg x7) (fp.add RNE x7 x4)))
(assert (fp.lt (fp.mul RNE x11 x4) (fp.div RNE x7 x3)))
(assert (fp.geq (fp.div RNE x6 x6) (fp.div RNE x7 x3)))
(assert (fp.geq (fp.div RNE x8 x3) (fp.div RNE x8 x2)))
(assert (fp.geq (fp.add RNE x10 x0) (fp.neg x8)))
(assert (fp.leq (fp.add RNE x9 x11) (fp.neg x0)))
(assert (fp.lt (fp.div RNE x10 x9) (fp.add RNE x2 x7)))
(assert (fp.eq (fp.mul RNE x9 x1) (fp.div RNE x7 x3)))
(check-sat)
