db/data/25963190526261272442681932310595723226.z3.out
-------------------
2500.130053383
